NAME : portcgen-15-31
COMMENT : portcgen N=15, seed=31
TYPE : TSP
DIMENSION : 15
EDGE_WEIGHT_TYPE : EUC_2D
NODE_COORD_SECTION
1 -112779 151854
2 -302956 -17345
3 -89648 -249058
4 51569 113634
5 -423648 -330685
6 113542 -258090
7 304475 -254196
8 -203893 255150
9 -42541 60703
10 -503795 -190656
11 -211850 -286266
12 -207346 -87573
13 19860 -608410
14 -164565 148723
15 -46621 71594
